(set-info :smt-lib-version 2.6)
(set-logic UF)
(set-info :source |
Generated by: Andrew Reynolds
Generated on: 2017-04-28
Generator: Sledgehammer, converted to v2.6 by CVC4
Application: Verfication goals in Isabelle
Target solver: CVC4, Z3
Publications: "A Decision Procedure for (Co)Datatypes" by Andrew Reynolds and Jasmin Blanchette, CADE 2015.
|)
(set-info :license "https://creativecommons.org/licenses/by/4.0/")
(set-info :category "industrial")
(set-info :status unsat)


(declare-sort A$ 0)
(declare-sort Nat$ 0)
(declare-sort A_set$ 0)
(declare-sort A_nat_fun$ 0)
(declare-sort A_bool_fun$ 0)
(declare-sort Nat_nat_fun$ 0)
(declare-sort A_a_tree_fun$ 0)
(declare-sort Nat_bool_fun$ 0)
(declare-sort A_a_bool_fun_fun$ 0)
(declare-sort Nat_nat_bool_fun_fun$ 0)
(declare-sort A_tree$ 0)
(declare-fun select$ (A_tree$) Nat$)
(declare-fun selecta$ (A_tree$) A$)
(declare-fun leaf$ (Nat$ A$) A_tree$)
(declare-fun selectb$ (A_tree$) Nat$)
(declare-fun selectc$ (A_tree$) A_tree$)
(declare-fun selectd$ (A_tree$) A_tree$)
(declare-fun innerNode$ (Nat$ A_tree$ A_tree$) A_tree$)
(declare-fun a$ () A$)
(declare-fun b$ () A$)
(declare-fun c$ () A$)
(declare-fun d$ () A$)
(declare-fun t$ () A_tree$)
(declare-fun uu$ (A_set$) A_bool_fun$)
(declare-fun uua$ (A_tree$ A$ A$ Nat$ Nat$) A_nat_fun$)
(declare-fun cost$ (A_tree$) Nat$)
(declare-fun freq$ (A_tree$) A_nat_fun$)
(declare-fun less$ (Nat$) Nat_bool_fun$)
(declare-fun plus$ (Nat$) Nat_nat_fun$)
(declare-fun zero$ () Nat$)
(declare-fun depth$ (A_tree$ A$) Nat$)
(declare-fun times$ (Nat$) Nat_nat_fun$)
(declare-fun height$ (A_tree$) Nat$)
(declare-fun member$ (A$ A_set$) Bool)
(declare-fun minima$ (A_tree$) A_a_bool_fun_fun$)
(declare-fun of_nat$ (Nat$) Nat$)
(declare-fun collect$ (A_bool_fun$) A_set$)
(declare-fun fun_app$ (A_bool_fun$ A$) Bool)
(declare-fun less_eq$ (Nat$) Nat_bool_fun$)
(declare-fun optimum$ (A_tree$) Bool)
(declare-fun sibling$ (A_tree$ A$) A$)
(declare-fun alphabet$ (A_tree$) A_set$)
(declare-fun fun_app$a (A_nat_fun$ A$) Nat$)
(declare-fun fun_app$b (Nat_bool_fun$ Nat$) Bool)
(declare-fun fun_app$c (A_a_bool_fun_fun$ A$) A_bool_fun$)
(declare-fun fun_app$d (Nat_nat_fun$ Nat$) Nat$)
(declare-fun fun_app$e (Nat_nat_bool_fun_fun$ Nat$) Nat_bool_fun$)
(declare-fun fun_app$f (A_a_tree_fun$ A$) A_tree$)
(declare-fun swapSyms$ (A_tree$ A$) A_a_tree_fun$)
(declare-fun splitLeaf$ (A_tree$ Nat$ A$ Nat$ A$) A_tree$)
(declare-fun consistent$ (A_tree$) Bool)
(declare-fun swapLeaves$ (A_tree$ Nat$ A$ Nat$) A_a_tree_fun$)
(declare-fun swapFourSyms$ (A_tree$ A$ A$ A$ A$) A_tree$)
(assert (forall ((?v0 A_set$) (?v1 A$)) (! (= (fun_app$ (uu$ ?v0) ?v1) (member$ ?v1 ?v0)) :pattern ((fun_app$ (uu$ ?v0) ?v1)))))
(assert (forall ((?v0 A_tree$) (?v1 A$) (?v2 A$) (?v3 Nat$) (?v4 Nat$) (?v5 A$)) (! (= (fun_app$a (uua$ ?v0 ?v1 ?v2 ?v3 ?v4) ?v5) (ite (= ?v5 ?v1) (ite (member$ ?v2 (alphabet$ ?v0)) ?v3 zero$) (ite (= ?v5 ?v2) (ite (member$ ?v1 (alphabet$ ?v0)) ?v4 zero$) (fun_app$a (freq$ ?v0) ?v5)))) :pattern ((fun_app$a (uua$ ?v0 ?v1 ?v2 ?v3 ?v4) ?v5)))))
(assert (not (fun_app$b (less_eq$ (cost$ (swapFourSyms$ t$ a$ b$ c$ d$))) (cost$ t$))))
(assert (consistent$ t$))
(assert (not (= c$ d$)))
(assert (member$ c$ (alphabet$ t$)))
(assert (member$ d$ (alphabet$ t$)))
(assert (= (depth$ t$ c$) (height$ t$)))
(assert (= (depth$ t$ d$) (height$ t$)))
(assert (fun_app$ (fun_app$c (minima$ t$) a$) b$))
(assert (not (and (not (= a$ d$)) (not (= b$ c$)))))
(assert (forall ((?v0 A$) (?v1 A_tree$) (?v2 A$) (?v3 A$) (?v4 A$)) (=> (and (member$ ?v0 (alphabet$ ?v1)) (and (member$ ?v2 (alphabet$ ?v1)) (and (member$ ?v3 (alphabet$ ?v1)) (member$ ?v4 (alphabet$ ?v1))))) (= (alphabet$ (swapFourSyms$ ?v1 ?v0 ?v2 ?v3 ?v4)) (alphabet$ ?v1))) ))
(assert (forall ((?v0 Nat$)) (fun_app$b (less_eq$ ?v0) ?v0) ))
(assert (forall ((?v0 A_tree$) (?v1 A$) (?v2 A$) (?v3 A$) (?v4 A$)) (=> (consistent$ ?v0) (consistent$ (swapFourSyms$ ?v0 ?v1 ?v2 ?v3 ?v4))) ))
(assert (forall ((?v0 Nat$) (?v1 Nat$)) (=> (= ?v0 ?v1) (fun_app$b (less_eq$ ?v0) ?v1)) ))
(assert (forall ((?v0 Nat$) (?v1 Nat$)) (=> (and (fun_app$b (less_eq$ ?v0) ?v1) (fun_app$b (less_eq$ ?v1) ?v0)) (= ?v0 ?v1)) ))
(assert (forall ((?v0 Nat$) (?v1 Nat$) (?v2 Nat$)) (=> (and (fun_app$b (less_eq$ ?v0) ?v1) (fun_app$b (less_eq$ ?v1) ?v2)) (fun_app$b (less_eq$ ?v0) ?v2)) ))
(assert (forall ((?v0 Nat$) (?v1 Nat$)) (or (fun_app$b (less_eq$ ?v0) ?v1) (fun_app$b (less_eq$ ?v1) ?v0)) ))
(assert (forall ((?v0 Nat$)) (fun_app$b (less_eq$ ?v0) ?v0) ))
(assert (forall ((?v0 Nat$) (?v1 Nat$)) (= (= ?v0 ?v1) (and (fun_app$b (less_eq$ ?v0) ?v1) (fun_app$b (less_eq$ ?v1) ?v0))) ))
(assert (forall ((?v0 Nat$) (?v1 Nat$)) (=> (and (=> (fun_app$b (less_eq$ ?v0) ?v1) false) (=> (fun_app$b (less_eq$ ?v1) ?v0) false)) false) ))
(assert (forall ((?v0 A_tree$)) (=> (consistent$ ?v0) (exists ((?v1 A$)) (and (member$ ?v1 (alphabet$ ?v0)) (= (depth$ ?v0 ?v1) (height$ ?v0))) )) ))
(assert (forall ((?v0 A_tree$)) (exists ((?v1 A$)) (member$ ?v1 (alphabet$ ?v0)) ) ))
(assert (forall ((?v0 A_tree$) (?v1 A$)) (fun_app$b (less_eq$ (depth$ ?v0 ?v1)) (height$ ?v0)) ))
(assert (forall ((?v0 Nat$)) (fun_app$b (less_eq$ ?v0) ?v0) ))
(assert (forall ((?v0 Nat$) (?v1 Nat$)) (or (fun_app$b (less_eq$ ?v0) ?v1) (fun_app$b (less_eq$ ?v1) ?v0)) ))
(assert (forall ((?v0 Nat$) (?v1 Nat$)) (! (=> (fun_app$b (less_eq$ ?v0) ?v1) (= (fun_app$b (less_eq$ ?v1) ?v0) (= ?v1 ?v0))) :pattern ((fun_app$b (less_eq$ ?v1) ?v0)))))
(assert (forall ((?v0 Nat$) (?v1 Nat$) (?v2 Nat$)) (=> (and (fun_app$b (less_eq$ ?v0) ?v1) (fun_app$b (less_eq$ ?v1) ?v2)) (fun_app$b (less_eq$ ?v0) ?v2)) ))
(assert (forall ((?v0 Nat$) (?v1 Nat$) (?v2 Nat$)) (=> (and (fun_app$b (less_eq$ ?v0) ?v1) (fun_app$b (less_eq$ ?v1) ?v2)) (fun_app$b (less_eq$ ?v0) ?v2)) ))
(assert (forall ((?v0 Nat$) (?v1 Nat$) (?v2 Nat$)) (=> (and (fun_app$b (less_eq$ ?v0) ?v1) (fun_app$b (less_eq$ ?v2) ?v0)) (fun_app$b (less_eq$ ?v2) ?v1)) ))
(assert (forall ((?v0 Nat$) (?v1 Nat$)) (=> (and (fun_app$b (less_eq$ ?v0) ?v1) (fun_app$b (less_eq$ ?v1) ?v0)) (= ?v0 ?v1)) ))
(assert (forall ((?v0 Nat$) (?v1 Nat$)) (=> (and (fun_app$b (less_eq$ ?v0) ?v1) (fun_app$b (less_eq$ ?v1) ?v0)) (= ?v0 ?v1)) ))
(assert (forall ((?v0 Nat$) (?v1 Nat$)) (=> (and (fun_app$b (less_eq$ ?v0) ?v1) (fun_app$b (less_eq$ ?v1) ?v0)) (= ?v1 ?v0)) ))
(assert (forall ((?v0 Nat$) (?v1 Nat_nat_fun$) (?v2 Nat$) (?v3 Nat$)) (=> (and (fun_app$b (less_eq$ ?v0) (fun_app$d ?v1 ?v2)) (and (fun_app$b (less_eq$ ?v2) ?v3) (forall ((?v4 Nat$) (?v5 Nat$)) (=> (fun_app$b (less_eq$ ?v4) ?v5) (fun_app$b (less_eq$ (fun_app$d ?v1 ?v4)) (fun_app$d ?v1 ?v5))) ))) (fun_app$b (less_eq$ ?v0) (fun_app$d ?v1 ?v3))) ))
(assert (forall ((?v0 Nat$) (?v1 Nat$) (?v2 Nat_nat_fun$) (?v3 Nat$)) (=> (and (fun_app$b (less_eq$ ?v0) ?v1) (and (fun_app$b (less_eq$ (fun_app$d ?v2 ?v1)) ?v3) (forall ((?v4 Nat$) (?v5 Nat$)) (=> (fun_app$b (less_eq$ ?v4) ?v5) (fun_app$b (less_eq$ (fun_app$d ?v2 ?v4)) (fun_app$d ?v2 ?v5))) ))) (fun_app$b (less_eq$ (fun_app$d ?v2 ?v0)) ?v3)) ))
(assert (forall ((?v0 Nat$) (?v1 Nat$) (?v2 Nat$)) (=> (and (fun_app$b (less_eq$ ?v0) ?v1) (= ?v1 ?v2)) (fun_app$b (less_eq$ ?v0) ?v2)) ))
(assert (forall ((?v0 Nat$) (?v1 Nat$) (?v2 Nat_nat_fun$) (?v3 Nat$)) (=> (and (fun_app$b (less_eq$ ?v0) ?v1) (and (= (fun_app$d ?v2 ?v1) ?v3) (forall ((?v4 Nat$) (?v5 Nat$)) (=> (fun_app$b (less_eq$ ?v4) ?v5) (fun_app$b (less_eq$ (fun_app$d ?v2 ?v4)) (fun_app$d ?v2 ?v5))) ))) (fun_app$b (less_eq$ (fun_app$d ?v2 ?v0)) ?v3)) ))
(assert (forall ((?v0 Nat$) (?v1 Nat$)) (=> (= ?v0 ?v1) (fun_app$b (less_eq$ ?v0) ?v1)) ))
(assert (forall ((?v0 Nat$) (?v1 Nat$) (?v2 Nat$)) (=> (and (= ?v0 ?v1) (fun_app$b (less_eq$ ?v1) ?v2)) (fun_app$b (less_eq$ ?v0) ?v2)) ))
(assert (forall ((?v0 Nat$) (?v1 Nat_nat_fun$) (?v2 Nat$) (?v3 Nat$)) (=> (and (= ?v0 (fun_app$d ?v1 ?v2)) (and (fun_app$b (less_eq$ ?v2) ?v3) (forall ((?v4 Nat$) (?v5 Nat$)) (=> (fun_app$b (less_eq$ ?v4) ?v5) (fun_app$b (less_eq$ (fun_app$d ?v1 ?v4)) (fun_app$d ?v1 ?v5))) ))) (fun_app$b (less_eq$ ?v0) (fun_app$d ?v1 ?v3))) ))
(assert (forall ((?v0 Nat_nat_bool_fun_fun$) (?v1 Nat$) (?v2 Nat$)) (=> (and (forall ((?v3 Nat$) (?v4 Nat$)) (=> (fun_app$b (less_eq$ ?v3) ?v4) (fun_app$b (fun_app$e ?v0 ?v3) ?v4)) ) (forall ((?v3 Nat$) (?v4 Nat$)) (=> (fun_app$b (fun_app$e ?v0 ?v4) ?v3) (fun_app$b (fun_app$e ?v0 ?v3) ?v4)) )) (fun_app$b (fun_app$e ?v0 ?v1) ?v2)) ))
(assert (forall ((?v0 A_tree$) (?v1 A$) (?v2 A$) (?v3 A$)) (=> (and (consistent$ ?v0) (and (not (= ?v1 ?v2)) (not (= ?v1 ?v3)))) (= (depth$ (fun_app$f (swapSyms$ ?v0 ?v2) ?v3) ?v1) (depth$ ?v0 ?v1))) ))
(assert (forall ((?v0 A_tree$) (?v1 A$) (?v2 A$) (?v3 A$) (?v4 A$)) (=> (and (consistent$ ?v0) (and (member$ ?v1 (alphabet$ ?v0)) (and (member$ ?v2 (alphabet$ ?v0)) (and (member$ ?v3 (alphabet$ ?v0)) (member$ ?v4 (alphabet$ ?v0)))))) (= (freq$ (swapFourSyms$ ?v0 ?v1 ?v2 ?v3 ?v4)) (freq$ ?v0))) ))
(assert (forall ((?v0 A_bool_fun$) (?v1 A_bool_fun$)) (=> (forall ((?v2 A$)) (= (fun_app$ ?v0 ?v2) (fun_app$ ?v1 ?v2)) ) (= (collect$ ?v0) (collect$ ?v1))) ))
(assert (forall ((?v0 A_set$)) (= (collect$ (uu$ ?v0)) ?v0) ))
(assert (forall ((?v0 A$) (?v1 A_bool_fun$)) (= (member$ ?v0 (collect$ ?v1)) (fun_app$ ?v1 ?v0)) ))
(assert (forall ((?v0 A_tree$) (?v1 A$) (?v2 A$)) (= (fun_app$ (fun_app$c (minima$ ?v0) ?v1) ?v2) (and (member$ ?v1 (alphabet$ ?v0)) (and (member$ ?v2 (alphabet$ ?v0)) (and (not (= ?v1 ?v2)) (and (fun_app$b (less_eq$ (fun_app$a (freq$ ?v0) ?v1)) (fun_app$a (freq$ ?v0) ?v2)) (forall ((?v3 A$)) (=> (and (member$ ?v3 (alphabet$ ?v0)) (and (not (= ?v3 ?v1)) (not (= ?v3 ?v2)))) (and (fun_app$b (less_eq$ (fun_app$a (freq$ ?v0) ?v1)) (fun_app$a (freq$ ?v0) ?v3)) (fun_app$b (less_eq$ (fun_app$a (freq$ ?v0) ?v2)) (fun_app$a (freq$ ?v0) ?v3)))) )))))) ))
(assert (forall ((?v0 A_tree$) (?v1 A$) (?v2 A$) (?v3 A$) (?v4 Nat$) (?v5 Nat$)) (=> (and (consistent$ ?v0) (and (not (= ?v1 ?v2)) (not (= ?v1 ?v3)))) (= (depth$ (fun_app$f (swapLeaves$ ?v0 ?v4 ?v2 ?v5) ?v3) ?v1) (depth$ ?v0 ?v1))) ))
(assert (forall ((?v0 A_tree$) (?v1 A$) (?v2 A$) (?v3 A$)) (=> (and (consistent$ ?v0) (and (member$ ?v1 (alphabet$ ?v0)) (and (member$ ?v2 (alphabet$ ?v0)) (and (member$ ?v3 (alphabet$ ?v0)) (and (not (= ?v1 ?v2)) (not (= (sibling$ ?v0 ?v3) ?v3))))))) (= (sibling$ (swapFourSyms$ ?v0 ?v1 ?v2 ?v3 (sibling$ ?v0 ?v3)) ?v1) ?v2)) ))
(assert (forall ((?v0 A_tree$) (?v1 A$) (?v2 Nat$) (?v3 A$) (?v4 Nat$)) (=> (and (consistent$ ?v0) (not (member$ ?v1 (alphabet$ ?v0)))) (consistent$ (splitLeaf$ ?v0 ?v2 ?v3 ?v4 ?v1))) ))
(assert (forall ((?v0 A_tree$)) (= (optimum$ ?v0) (forall ((?v1 A_tree$)) (=> (and (consistent$ ?v1) (and (= (alphabet$ ?v0) (alphabet$ ?v1)) (= (freq$ ?v0) (freq$ ?v1)))) (fun_app$b (less_eq$ (cost$ ?v0)) (cost$ ?v1))) )) ))
(assert (forall ((?v0 A_tree$) (?v1 A$) (?v2 A$)) (=> (and (consistent$ ?v0) (and (member$ ?v1 (alphabet$ ?v0)) (and (member$ ?v2 (alphabet$ ?v0)) (and (fun_app$b (less_eq$ (fun_app$a (freq$ ?v0) ?v1)) (fun_app$a (freq$ ?v0) ?v2)) (fun_app$b (less_eq$ (depth$ ?v0 ?v1)) (depth$ ?v0 ?v2)))))) (fun_app$b (less_eq$ (cost$ (fun_app$f (swapSyms$ ?v0 ?v1) ?v2))) (cost$ ?v0))) ))
(assert (forall ((?v0 A_tree$)) (! (=> (= (height$ ?v0) zero$) (= (cost$ ?v0) zero$)) :pattern ((cost$ ?v0)))))
(assert (forall ((?v0 Nat$)) (! (= (fun_app$b (less_eq$ ?v0) zero$) (= ?v0 zero$)) :pattern ((less_eq$ ?v0)))))
(assert (forall ((?v0 Nat$)) (fun_app$b (less_eq$ zero$) ?v0) ))
(assert (forall ((?v0 A$) (?v1 A_tree$)) (! (=> (not (member$ ?v0 (alphabet$ ?v1))) (= (sibling$ ?v1 ?v0) ?v0)) :pattern ((sibling$ ?v1 ?v0)))))
(assert (forall ((?v0 A_tree$) (?v1 A$)) (=> (consistent$ ?v0) (= (sibling$ ?v0 (sibling$ ?v0 ?v1)) ?v1)) ))
(assert (forall ((?v0 A$) (?v1 A_tree$) (?v2 Nat$) (?v3 Nat$)) (! (=> (not (member$ ?v0 (alphabet$ ?v1))) (= (fun_app$f (swapLeaves$ ?v1 ?v2 ?v0 ?v3) ?v0) ?v1)) :pattern ((swapLeaves$ ?v1 ?v2 ?v0 ?v3)))))
(assert (forall ((?v0 A$) (?v1 A_tree$) (?v2 A$)) (=> (and (member$ ?v0 (alphabet$ ?v1)) (member$ ?v2 (alphabet$ ?v1))) (= (alphabet$ (fun_app$f (swapSyms$ ?v1 ?v0) ?v2)) (alphabet$ ?v1))) ))
(assert (forall ((?v0 A_tree$) (?v1 Nat$) (?v2 A$) (?v3 Nat$) (?v4 A$)) (= (height$ (fun_app$f (swapLeaves$ ?v0 ?v1 ?v2 ?v3) ?v4)) (height$ ?v0)) ))
(assert (forall ((?v0 A$) (?v1 A_tree$) (?v2 Nat$) (?v3 Nat$) (?v4 A$)) (! (=> (not (member$ ?v0 (alphabet$ ?v1))) (= (splitLeaf$ ?v1 ?v2 ?v0 ?v3 ?v4) ?v1)) :pattern ((splitLeaf$ ?v1 ?v2 ?v0 ?v3 ?v4)))))
(assert (forall ((?v0 A_tree$) (?v1 A$)) (! (=> (consistent$ ?v0) (= (fun_app$f (swapSyms$ ?v0 ?v1) ?v1) ?v0)) :pattern ((swapSyms$ ?v0 ?v1)))))
(assert (forall ((?v0 A$) (?v1 A_tree$)) (! (=> (not (member$ ?v0 (alphabet$ ?v1))) (= (fun_app$a (freq$ ?v1) ?v0) zero$)) :pattern ((fun_app$a (freq$ ?v1) ?v0)))))
(assert (forall ((?v0 A_tree$) (?v1 A$)) (! (=> (= (height$ ?v0) zero$) (= (sibling$ ?v0 ?v1) ?v1)) :pattern ((sibling$ ?v0 ?v1)))))
(assert (forall ((?v0 A_tree$) (?v1 A$)) (=> (consistent$ ?v0) (= (depth$ ?v0 (sibling$ ?v0 ?v1)) (depth$ ?v0 ?v1))) ))
(assert (forall ((?v0 A_tree$) (?v1 A$)) (=> (consistent$ ?v0) (= (fun_app$f (swapLeaves$ ?v0 (fun_app$a (freq$ ?v0) ?v1) ?v1 (fun_app$a (freq$ ?v0) ?v1)) ?v1) ?v0)) ))
(assert (forall ((?v0 A_tree$) (?v1 A$) (?v2 A$) (?v3 Nat$) (?v4 Nat$)) (=> (and (consistent$ ?v0) (and (not (= (sibling$ ?v0 ?v1) ?v1)) (not (= ?v2 ?v1)))) (= (sibling$ (fun_app$f (swapLeaves$ ?v0 ?v3 ?v2 ?v4) (sibling$ ?v0 ?v1)) ?v2) ?v1)) ))
(assert (forall ((?v0 A_tree$) (?v1 A$) (?v2 A$)) (=> (and (consistent$ ?v0) (and (not (= (sibling$ ?v0 ?v1) ?v1)) (not (= ?v2 ?v1)))) (= (sibling$ (fun_app$f (swapSyms$ ?v0 ?v2) (sibling$ ?v0 ?v1)) ?v2) ?v1)) ))
(assert (forall ((?v0 A_tree$) (?v1 A$) (?v2 A$)) (=> (and (consistent$ ?v0) (and (not (= (sibling$ ?v0 ?v1) ?v2)) (and (not (= (sibling$ ?v0 ?v1) ?v1)) (not (= ?v2 ?v1))))) (= (sibling$ (fun_app$f (swapSyms$ ?v0 ?v2) ?v1) (sibling$ ?v0 ?v1)) ?v2)) ))
(assert (forall ((?v0 A_tree$) (?v1 A$) (?v2 A$)) (=> (and (consistent$ ?v0) (and (member$ ?v1 (alphabet$ ?v0)) (member$ ?v2 (alphabet$ ?v0)))) (= (freq$ (fun_app$f (swapSyms$ ?v0 ?v1) ?v2)) (freq$ ?v0))) ))
(assert (forall ((?v0 A_tree$) (?v1 A$) (?v2 A$) (?v3 Nat$) (?v4 Nat$)) (=> (and (consistent$ ?v0) (not (= ?v1 ?v2))) (= (freq$ (fun_app$f (swapLeaves$ ?v0 ?v3 ?v1 ?v4) ?v2)) (uua$ ?v0 ?v1 ?v2 ?v3 ?v4))) ))
(assert (forall ((?v0 Nat$)) (=> (and (=> (= ?v0 zero$) false) (=> (not (= ?v0 zero$)) false)) false) ))
(assert (forall ((?v0 A_tree$) (?v1 A$) (?v2 A$)) (! (= (fun_app$f (swapSyms$ ?v0 ?v1) ?v2) (fun_app$f (swapLeaves$ ?v0 (fun_app$a (freq$ ?v0) ?v1) ?v1 (fun_app$a (freq$ ?v0) ?v2)) ?v2)) :pattern ((fun_app$f (swapSyms$ ?v0 ?v1) ?v2)))))
(assert (forall ((?v0 Nat$)) (! (= (fun_app$b (less_eq$ zero$) ?v0) true) :pattern ((fun_app$b (less_eq$ zero$) ?v0)))))
(assert (forall ((?v0 A_tree$) (?v1 A$)) (=> (not (= (sibling$ ?v0 ?v1) ?v1)) (member$ (sibling$ ?v0 ?v1) (alphabet$ ?v0))) ))
(assert (forall ((?v0 A$) (?v1 A_tree$)) (=> (member$ ?v0 (alphabet$ ?v1)) (member$ (sibling$ ?v1 ?v0) (alphabet$ ?v1))) ))
(assert (forall ((?v0 A_tree$) (?v1 A$) (?v2 A$)) (=> (and (consistent$ ?v0) (= (sibling$ ?v0 ?v1) ?v2)) (= (sibling$ ?v0 ?v2) ?v1)) ))
(assert (forall ((?v0 A_tree$) (?v1 Nat$) (?v2 A$) (?v3 Nat$) (?v4 A$)) (=> (consistent$ ?v0) (consistent$ (fun_app$f (swapLeaves$ ?v0 ?v1 ?v2 ?v3) ?v4))) ))
(assert (forall ((?v0 A_tree$) (?v1 A$) (?v2 A$)) (=> (consistent$ ?v0) (consistent$ (fun_app$f (swapSyms$ ?v0 ?v1) ?v2))) ))
(assert (forall ((?v0 A_tree$) (?v1 A$) (?v2 A$) (?v3 A$) (?v4 A$)) (! (= (swapFourSyms$ ?v0 ?v1 ?v2 ?v3 ?v4) (ite (= ?v1 ?v4) (fun_app$f (swapSyms$ ?v0 ?v2) ?v3) (ite (= ?v2 ?v3) (fun_app$f (swapSyms$ ?v0 ?v1) ?v4) (fun_app$f (swapSyms$ (fun_app$f (swapSyms$ ?v0 ?v1) ?v3) ?v2) ?v4)))) :pattern ((swapFourSyms$ ?v0 ?v1 ?v2 ?v3 ?v4)))))
(assert (forall ((?v0 A_tree$) (?v1 A$) (?v2 Nat$) (?v3 Nat$) (?v4 A$)) (=> (and (consistent$ ?v0) (and (member$ ?v1 (alphabet$ ?v0)) (= (fun_app$a (freq$ ?v0) ?v1) (fun_app$d (plus$ ?v2) ?v3)))) (= (cost$ (splitLeaf$ ?v0 ?v2 ?v1 ?v3 ?v4)) (fun_app$d (plus$ (fun_app$d (plus$ (cost$ ?v0)) ?v2)) ?v3))) ))
(assert (forall ((?v0 A_tree$) (?v1 A$)) (=> (and (consistent$ ?v0) (and (= (depth$ ?v0 ?v1) (height$ ?v0)) (and (fun_app$b (less$ zero$) (height$ ?v0)) (member$ ?v1 (alphabet$ ?v0))))) (not (= (sibling$ ?v0 ?v1) ?v1))) ))
(assert (fun_app$b (less_eq$ zero$) zero$))
(assert (forall ((?v0 A_tree$) (?v1 A_tree$)) (=> (and (fun_app$b (less$ zero$) (height$ ?v0)) (and (consistent$ ?v0) (= (alphabet$ ?v0) (alphabet$ ?v1)))) (fun_app$b (less$ zero$) (height$ ?v1))) ))
(assert (forall ((?v0 Nat$)) (= (fun_app$b (less_eq$ (of_nat$ ?v0)) zero$) (= ?v0 zero$)) ))
(assert (forall ((?v0 A_tree$) (?v1 A$) (?v2 A$)) (=> (and (consistent$ ?v0) (and (member$ ?v1 (alphabet$ ?v0)) (member$ ?v2 (alphabet$ ?v0)))) (= (fun_app$d (plus$ (fun_app$d (plus$ (cost$ (fun_app$f (swapSyms$ ?v0 ?v1) ?v2))) (fun_app$d (times$ (fun_app$a (freq$ ?v0) ?v1)) (depth$ ?v0 ?v1)))) (fun_app$d (times$ (fun_app$a (freq$ ?v0) ?v2)) (depth$ ?v0 ?v2))) (fun_app$d (plus$ (fun_app$d (plus$ (cost$ ?v0)) (fun_app$d (times$ (fun_app$a (freq$ ?v0) ?v1)) (depth$ ?v0 ?v2)))) (fun_app$d (times$ (fun_app$a (freq$ ?v0) ?v2)) (depth$ ?v0 ?v1))))) ))
(assert (forall ((?v0 Nat$) (?v1 Nat$) (?v2 Nat$)) (= (= (fun_app$d (plus$ ?v0) ?v1) (fun_app$d (plus$ ?v2) ?v1)) (= ?v0 ?v2)) ))
(assert (forall ((?v0 Nat$) (?v1 Nat$) (?v2 Nat$)) (= (= (fun_app$d (plus$ ?v0) ?v1) (fun_app$d (plus$ ?v0) ?v2)) (= ?v1 ?v2)) ))
(assert (forall ((?v0 Nat$) (?v1 Nat$)) (= (= (of_nat$ ?v0) (of_nat$ ?v1)) (= ?v0 ?v1)) ))
(assert (forall ((?v0 Nat$) (?v1 Nat$) (?v2 Nat$)) (= (fun_app$b (less_eq$ (fun_app$d (plus$ ?v0) ?v1)) (fun_app$d (plus$ ?v2) ?v1)) (fun_app$b (less_eq$ ?v0) ?v2)) ))
(assert (forall ((?v0 Nat$) (?v1 Nat$) (?v2 Nat$)) (= (fun_app$b (less_eq$ (fun_app$d (plus$ ?v0) ?v1)) (fun_app$d (plus$ ?v0) ?v2)) (fun_app$b (less_eq$ ?v1) ?v2)) ))
(assert (forall ((?v0 Nat$)) (= (fun_app$d (plus$ zero$) ?v0) ?v0) ))
(assert (forall ((?v0 Nat$)) (= (fun_app$d (plus$ ?v0) zero$) ?v0) ))
(assert (forall ((?v0 Nat$) (?v1 Nat$) (?v2 Nat$)) (= (fun_app$b (less$ (fun_app$d (plus$ ?v0) ?v1)) (fun_app$d (plus$ ?v2) ?v1)) (fun_app$b (less$ ?v0) ?v2)) ))
(assert (forall ((?v0 Nat$) (?v1 Nat$) (?v2 Nat$)) (= (fun_app$b (less$ (fun_app$d (plus$ ?v0) ?v1)) (fun_app$d (plus$ ?v0) ?v2)) (fun_app$b (less$ ?v1) ?v2)) ))
(assert (forall ((?v0 Nat$)) (! (= (fun_app$b (less$ ?v0) zero$) false) :pattern ((less$ ?v0)))))
(assert (forall ((?v0 Nat$)) (= (not (fun_app$b (less$ zero$) ?v0)) (= ?v0 zero$)) ))
(assert (forall ((?v0 Nat$)) (= (not (= ?v0 zero$)) (fun_app$b (less$ zero$) ?v0)) ))
(assert (forall ((?v0 Nat$)) (! (= (fun_app$d (plus$ ?v0) zero$) ?v0) :pattern ((plus$ ?v0)))))
(assert (forall ((?v0 Nat$) (?v1 Nat$)) (= (= (fun_app$d (plus$ ?v0) ?v1) zero$) (and (= ?v0 zero$) (= ?v1 zero$))) ))
(assert (forall ((?v0 Nat$) (?v1 Nat$) (?v2 Nat$)) (= (fun_app$b (less$ (fun_app$d (plus$ ?v0) ?v1)) (fun_app$d (plus$ ?v0) ?v2)) (fun_app$b (less$ ?v1) ?v2)) ))
(assert (forall ((?v0 Nat$) (?v1 Nat$) (?v2 Nat$)) (= (fun_app$b (less_eq$ (fun_app$d (plus$ ?v0) ?v1)) (fun_app$d (plus$ ?v0) ?v2)) (fun_app$b (less_eq$ ?v1) ?v2)) ))
(assert (forall ((?v0 Nat$)) (! (= (fun_app$d (times$ ?v0) zero$) zero$) :pattern ((times$ ?v0)))))
(assert (forall ((?v0 Nat$) (?v1 Nat$)) (= (= (fun_app$d (times$ ?v0) ?v1) zero$) (or (= ?v0 zero$) (= ?v1 zero$))) ))
(assert (forall ((?v0 Nat$) (?v1 Nat$) (?v2 Nat$)) (= (= (fun_app$d (times$ ?v0) ?v1) (fun_app$d (times$ ?v0) ?v2)) (or (= ?v1 ?v2) (= ?v0 zero$))) ))
(assert (forall ((?v0 Nat$) (?v1 Nat$) (?v2 Nat$)) (= (= (fun_app$d (times$ ?v0) ?v1) (fun_app$d (times$ ?v2) ?v1)) (or (= ?v0 ?v2) (= ?v1 zero$))) ))
(assert (= (of_nat$ zero$) zero$))
(assert (forall ((?v0 Nat$)) (= (= zero$ (of_nat$ ?v0)) (= zero$ ?v0)) ))
(assert (forall ((?v0 Nat$)) (= (= (of_nat$ ?v0) zero$) (= ?v0 zero$)) ))
(assert (forall ((?v0 Nat$) (?v1 Nat$)) (= (fun_app$b (less$ (of_nat$ ?v0)) (of_nat$ ?v1)) (fun_app$b (less$ ?v0) ?v1)) ))
(assert (forall ((?v0 Nat$) (?v1 Nat$)) (= (fun_app$b (less_eq$ (of_nat$ ?v0)) (of_nat$ ?v1)) (fun_app$b (less_eq$ ?v0) ?v1)) ))
(assert (forall ((?v0 Nat$) (?v1 Nat$)) (= (fun_app$b (less$ zero$) (fun_app$d (plus$ ?v0) ?v1)) (or (fun_app$b (less$ zero$) ?v0) (fun_app$b (less$ zero$) ?v1))) ))
(assert (forall ((?v0 Nat$) (?v1 Nat$)) (= (of_nat$ (fun_app$d (plus$ ?v0) ?v1)) (fun_app$d (plus$ (of_nat$ ?v0)) (of_nat$ ?v1))) ))
(assert (forall ((?v0 Nat$) (?v1 Nat$) (?v2 Nat$)) (= (fun_app$b (less$ (fun_app$d (times$ ?v0) ?v1)) (fun_app$d (times$ ?v2) ?v1)) (and (fun_app$b (less$ zero$) ?v1) (fun_app$b (less$ ?v0) ?v2))) ))
(assert (forall ((?v0 Nat$) (?v1 Nat$)) (= (fun_app$b (less$ zero$) (fun_app$d (times$ ?v0) ?v1)) (and (fun_app$b (less$ zero$) ?v0) (fun_app$b (less$ zero$) ?v1))) ))
(assert (forall ((?v0 Nat$) (?v1 Nat$) (?v2 Nat$)) (= (fun_app$b (less_eq$ (fun_app$d (times$ ?v0) ?v1)) (fun_app$d (times$ ?v2) ?v1)) (=> (fun_app$b (less$ zero$) ?v1) (fun_app$b (less_eq$ ?v0) ?v2))) ))
(assert (forall ((?v0 Nat$)) (= (fun_app$b (less$ zero$) (of_nat$ ?v0)) (fun_app$b (less$ zero$) ?v0)) ))
(assert (forall ((?v0 Nat$) (?v1 Nat$) (?v2 Nat$)) (=> (and (fun_app$b (less$ ?v0) ?v1) (fun_app$b (less$ zero$) ?v2)) (fun_app$b (less$ (fun_app$d (times$ ?v2) ?v0)) (fun_app$d (times$ ?v2) ?v1))) ))
(assert (forall ((?v0 Nat$) (?v1 Nat$) (?v2 Nat$)) (=> (and (fun_app$b (less$ ?v0) ?v1) (fun_app$b (less$ zero$) ?v2)) (fun_app$b (less$ (fun_app$d (times$ ?v0) ?v2)) (fun_app$d (times$ ?v1) ?v2))) ))
(assert (forall ((?v0 Nat$) (?v1 Nat$)) (=> (fun_app$b (less$ ?v0) ?v1) (exists ((?v2 Nat$)) (and (fun_app$b (less$ zero$) ?v2) (= (fun_app$d (plus$ ?v0) ?v2) ?v1)) )) ))
(assert (forall ((?v0 Nat$) (?v1 Nat$)) (=> (and (fun_app$b (less$ ?v0) zero$) (fun_app$b (less_eq$ ?v1) zero$)) (fun_app$b (less$ (fun_app$d (plus$ ?v0) ?v1)) zero$)) ))
(assert (forall ((?v0 Nat$) (?v1 Nat$) (?v2 Nat$)) (=> (and (fun_app$b (less$ zero$) ?v0) (fun_app$b (less_eq$ ?v1) ?v2)) (fun_app$b (less$ ?v1) (fun_app$d (plus$ ?v0) ?v2))) ))
(assert (forall ((?v0 Nat$) (?v1 Nat$)) (=> (and (fun_app$b (less$ zero$) ?v0) (fun_app$b (less_eq$ zero$) ?v1)) (fun_app$b (less$ zero$) (fun_app$d (plus$ ?v0) ?v1))) ))
(assert (forall ((?v0 Nat$) (?v1 Nat$)) (=> (and (fun_app$b (less_eq$ ?v0) zero$) (fun_app$b (less$ ?v1) zero$)) (fun_app$b (less$ (fun_app$d (plus$ ?v0) ?v1)) zero$)) ))
(assert (forall ((?v0 Nat$) (?v1 Nat$) (?v2 Nat$)) (=> (and (fun_app$b (less_eq$ zero$) ?v0) (fun_app$b (less$ ?v1) ?v2)) (fun_app$b (less$ ?v1) (fun_app$d (plus$ ?v0) ?v2))) ))
(assert (forall ((?v0 Nat$) (?v1 Nat$)) (=> (and (fun_app$b (less_eq$ zero$) ?v0) (fun_app$b (less$ zero$) ?v1)) (fun_app$b (less$ zero$) (fun_app$d (plus$ ?v0) ?v1))) ))
(assert (forall ((?v0 Nat$)) (not (fun_app$b (less$ (of_nat$ ?v0)) zero$)) ))
(assert (not (fun_app$b (less$ zero$) zero$)))
(assert (forall ((?v0 Nat$) (?v1 Nat$)) (=> (and (fun_app$b (less$ zero$) ?v0) (fun_app$b (less$ zero$) ?v1)) (fun_app$b (less$ zero$) (fun_app$d (plus$ ?v0) ?v1))) ))
(assert (forall ((?v0 Nat$) (?v1 Nat$)) (=> (and (fun_app$b (less$ ?v0) zero$) (fun_app$b (less$ ?v1) zero$)) (fun_app$b (less$ (fun_app$d (plus$ ?v0) ?v1)) zero$)) ))
(assert (forall ((?v0 Nat$)) (= (fun_app$d (plus$ zero$) ?v0) ?v0) ))
(assert (forall ((?v0 Nat$)) (= (fun_app$d (plus$ ?v0) zero$) ?v0) ))
(assert (forall ((?v0 Nat$) (?v1 Nat$) (?v2 Nat$) (?v3 Nat$)) (=> (and (fun_app$b (less_eq$ ?v0) ?v1) (fun_app$b (less_eq$ ?v2) ?v3)) (fun_app$b (less_eq$ (fun_app$d (plus$ (fun_app$d (times$ ?v0) ?v3)) (fun_app$d (times$ ?v1) ?v2))) (fun_app$d (plus$ (fun_app$d (times$ ?v0) ?v2)) (fun_app$d (times$ ?v1) ?v3)))) ))
(assert (forall ((?v0 Nat_nat_fun$) (?v1 Nat$) (?v2 Nat$)) (=> (forall ((?v3 Nat$) (?v4 Nat$)) (=> (fun_app$b (less$ ?v3) ?v4) (fun_app$b (less$ (fun_app$d ?v0 ?v3)) (fun_app$d ?v0 ?v4))) ) (fun_app$b (less_eq$ (fun_app$d (plus$ (fun_app$d ?v0 ?v1)) ?v2)) (fun_app$d ?v0 (fun_app$d (plus$ ?v1) ?v2)))) ))
(assert (forall ((?v0 Nat$) (?v1 Nat$)) (= (fun_app$b (less_eq$ ?v0) ?v1) (exists ((?v2 Nat$)) (= ?v1 (fun_app$d (plus$ ?v0) ?v2)) )) ))
(assert (forall ((?v0 Nat$) (?v1 Nat$) (?v2 Nat$) (?v3 Nat$)) (=> (and (= ?v0 ?v1) (fun_app$b (less_eq$ ?v2) ?v3)) (fun_app$b (less_eq$ (fun_app$d (plus$ ?v0) ?v2)) (fun_app$d (plus$ ?v1) ?v3))) ))
(assert (forall ((?v0 Nat$) (?v1 Nat$) (?v2 Nat$) (?v3 Nat$)) (=> (and (fun_app$b (less_eq$ ?v0) ?v1) (= ?v2 ?v3)) (fun_app$b (less_eq$ (fun_app$d (plus$ ?v0) ?v2)) (fun_app$d (plus$ ?v1) ?v3))) ))
(assert (forall ((?v0 Nat$) (?v1 Nat$) (?v2 Nat$) (?v3 Nat$)) (=> (and (fun_app$b (less_eq$ ?v0) ?v1) (fun_app$b (less_eq$ ?v2) ?v3)) (fun_app$b (less_eq$ (fun_app$d (plus$ ?v0) ?v2)) (fun_app$d (plus$ ?v1) ?v3))) ))
(assert (forall ((?v0 Nat$) (?v1 Nat$) (?v2 Nat$)) (=> (fun_app$b (less_eq$ (fun_app$d (plus$ ?v0) ?v1)) (fun_app$d (plus$ ?v2) ?v1)) (fun_app$b (less_eq$ ?v0) ?v2)) ))
(assert (forall ((?v0 Nat$) (?v1 Nat$) (?v2 Nat$)) (=> (fun_app$b (less_eq$ (fun_app$d (plus$ ?v0) ?v1)) (fun_app$d (plus$ ?v0) ?v2)) (fun_app$b (less_eq$ ?v1) ?v2)) ))
(assert (forall ((?v0 Nat$) (?v1 Nat$) (?v2 Nat$) (?v3 Nat$)) (=> (and (fun_app$b (less_eq$ ?v0) ?v1) (fun_app$b (less_eq$ ?v2) ?v3)) (fun_app$b (less_eq$ (fun_app$d (plus$ ?v0) ?v2)) (fun_app$d (plus$ ?v1) ?v3))) ))
(assert (forall ((?v0 Nat$) (?v1 Nat$) (?v2 Nat$)) (=> (fun_app$b (less_eq$ ?v0) ?v1) (fun_app$b (less_eq$ (fun_app$d (plus$ ?v0) ?v2)) (fun_app$d (plus$ ?v1) ?v2))) ))
(assert (forall ((?v0 Nat$) (?v1 Nat$) (?v2 Nat$)) (=> (fun_app$b (less_eq$ ?v0) ?v1) (fun_app$b (less_eq$ (fun_app$d (plus$ ?v2) ?v0)) (fun_app$d (plus$ ?v2) ?v1))) ))
(assert (forall ((?v0 Nat$) (?v1 Nat$) (?v2 Nat$)) (= (fun_app$d (plus$ (fun_app$d (plus$ ?v0) ?v1)) ?v2) (fun_app$d (plus$ ?v0) (fun_app$d (plus$ ?v1) ?v2))) ))
(assert (forall ((?v0 Nat$) (?v1 Nat$) (?v2 Nat$)) (= (fun_app$d (plus$ (fun_app$d (plus$ ?v0) ?v1)) ?v2) (fun_app$d (plus$ ?v0) (fun_app$d (plus$ ?v1) ?v2))) ))
(assert (forall ((?v0 Nat$) (?v1 Nat$) (?v2 Nat$)) (= (fun_app$d (plus$ ?v0) (fun_app$d (plus$ ?v1) ?v2)) (fun_app$d (plus$ ?v1) (fun_app$d (plus$ ?v0) ?v2))) ))
(assert (forall ((?v0 Nat$) (?v1 Nat$)) (= (fun_app$d (plus$ ?v0) ?v1) (fun_app$d (plus$ ?v1) ?v0)) ))
(assert (forall ((?v0 Nat$) (?v1 Nat$) (?v2 Nat$)) (= (fun_app$d (times$ (fun_app$d (times$ ?v0) ?v1)) ?v2) (fun_app$d (times$ ?v0) (fun_app$d (times$ ?v1) ?v2))) ))
(assert (forall ((?v0 Nat$) (?v1 Nat$) (?v2 Nat$)) (= (fun_app$d (times$ (fun_app$d (times$ ?v0) ?v1)) ?v2) (fun_app$d (times$ ?v0) (fun_app$d (times$ ?v1) ?v2))) ))
(assert (forall ((?v0 Nat$) (?v1 Nat$) (?v2 Nat$)) (= (fun_app$d (times$ ?v0) (fun_app$d (times$ ?v1) ?v2)) (fun_app$d (times$ ?v1) (fun_app$d (times$ ?v0) ?v2))) ))
(assert (forall ((?v0 Nat$) (?v1 Nat$)) (= (fun_app$d (times$ ?v0) ?v1) (fun_app$d (times$ ?v1) ?v0)) ))
(assert (forall ((?v0 Nat$) (?v1 Nat$) (?v2 Nat$)) (=> (= (fun_app$d (plus$ ?v0) ?v1) (fun_app$d (plus$ ?v2) ?v1)) (= ?v0 ?v2)) ))
(assert (forall ((?v0 Nat$) (?v1 Nat$) (?v2 Nat$)) (=> (= (fun_app$d (plus$ ?v0) ?v1) (fun_app$d (plus$ ?v0) ?v2)) (= ?v1 ?v2)) ))
(assert (forall ((?v0 Nat$) (?v1 Nat$) (?v2 Nat$) (?v3 Nat$)) (=> (and (= ?v0 ?v1) (= ?v2 ?v3)) (= (fun_app$d (plus$ ?v0) ?v2) (fun_app$d (plus$ ?v1) ?v3))) ))
(assert (forall ((?v0 Nat$) (?v1 Nat$) (?v2 Nat$) (?v3 Nat$)) (=> (and (= ?v0 ?v1) (fun_app$b (less$ ?v2) ?v3)) (fun_app$b (less$ (fun_app$d (plus$ ?v0) ?v2)) (fun_app$d (plus$ ?v1) ?v3))) ))
(assert (forall ((?v0 Nat$) (?v1 Nat$) (?v2 Nat$) (?v3 Nat$)) (=> (and (fun_app$b (less$ ?v0) ?v1) (= ?v2 ?v3)) (fun_app$b (less$ (fun_app$d (plus$ ?v0) ?v2)) (fun_app$d (plus$ ?v1) ?v3))) ))
(assert (forall ((?v0 Nat$) (?v1 Nat$) (?v2 Nat$) (?v3 Nat$)) (=> (and (fun_app$b (less$ ?v0) ?v1) (fun_app$b (less$ ?v2) ?v3)) (fun_app$b (less$ (fun_app$d (plus$ ?v0) ?v2)) (fun_app$d (plus$ ?v1) ?v3))) ))
(assert (forall ((?v0 Nat$) (?v1 Nat$) (?v2 Nat$)) (=> (fun_app$b (less$ (fun_app$d (plus$ ?v0) ?v1)) (fun_app$d (plus$ ?v2) ?v1)) (fun_app$b (less$ ?v0) ?v2)) ))
(assert (forall ((?v0 Nat$) (?v1 Nat$) (?v2 Nat$)) (=> (fun_app$b (less$ (fun_app$d (plus$ ?v0) ?v1)) (fun_app$d (plus$ ?v0) ?v2)) (fun_app$b (less$ ?v1) ?v2)) ))
(assert (forall ((?v0 Nat$) (?v1 Nat$) (?v2 Nat$) (?v3 Nat$)) (=> (and (fun_app$b (less$ ?v0) ?v1) (fun_app$b (less$ ?v2) ?v3)) (fun_app$b (less$ (fun_app$d (plus$ ?v0) ?v2)) (fun_app$d (plus$ ?v1) ?v3))) ))
(assert (forall ((?v0 Nat$) (?v1 Nat$) (?v2 Nat$)) (=> (fun_app$b (less$ ?v0) ?v1) (fun_app$b (less$ (fun_app$d (plus$ ?v0) ?v2)) (fun_app$d (plus$ ?v1) ?v2))) ))
(assert (forall ((?v0 Nat$) (?v1 Nat$) (?v2 Nat$)) (=> (fun_app$b (less$ ?v0) ?v1) (fun_app$b (less$ (fun_app$d (plus$ ?v2) ?v0)) (fun_app$d (plus$ ?v2) ?v1))) ))
(assert (forall ((?v0 Nat$)) (not (fun_app$b (less$ ?v0) ?v0)) ))
(assert (forall ((?v0 Nat$)) (not (fun_app$b (less$ ?v0) ?v0)) ))
(assert (forall ((?v0 Nat$)) (not (fun_app$b (less$ ?v0) ?v0)) ))
(assert (forall ((?v0 Nat$) (?v1 Nat$)) (not (fun_app$b (less$ (fun_app$d (plus$ ?v0) ?v1)) ?v0)) ))
(assert (forall ((?v0 Nat$) (?v1 Nat$)) (not (fun_app$b (less$ (fun_app$d (plus$ ?v0) ?v1)) ?v1)) ))
(assert (forall ((?v0 Nat$)) (exists ((?v1 Nat$)) (fun_app$b (less$ ?v0) ?v1) ) ))
(assert (forall ((?v0 Nat$) (?v1 Nat$)) (or (fun_app$b (less$ ?v0) ?v1) (or (= ?v0 ?v1) (fun_app$b (less$ ?v1) ?v0))) ))
(assert (forall ((?v0 Nat$) (?v1 Nat$)) (=> (not (fun_app$b (less$ ?v0) ?v1)) (= (not (fun_app$b (less$ ?v1) ?v0)) (= ?v1 ?v0))) ))
(assert (forall ((?v0 Nat$) (?v1 Nat$)) (=> (and (not (= ?v0 ?v1)) (and (=> (fun_app$b (less$ ?v0) ?v1) false) (=> (fun_app$b (less$ ?v1) ?v0) false))) false) ))
(assert (forall ((?v0 Nat$) (?v1 Nat$)) (=> (and (not (= ?v0 ?v1)) (and (=> (fun_app$b (less$ ?v0) ?v1) false) (=> (fun_app$b (less$ ?v1) ?v0) false))) false) ))
(assert (forall ((?v0 Nat$) (?v1 Nat$) (?v2 Nat$) (?v3 Nat$)) (=> (and (fun_app$b (less_eq$ ?v0) ?v1) (fun_app$b (less$ ?v2) ?v3)) (fun_app$b (less$ (fun_app$d (plus$ ?v0) ?v2)) (fun_app$d (plus$ ?v1) ?v3))) ))
(assert (forall ((?v0 Nat$)) (=> (fun_app$b (less$ ?v0) ?v0) false) ))
(assert (forall ((?v0 Nat$) (?v1 Nat$)) (=> (fun_app$b (less$ ?v0) ?v1) (not (fun_app$b (less$ ?v1) ?v0))) ))
(assert (forall ((?v0 Nat$) (?v1 Nat$)) (=> (fun_app$b (less$ ?v0) ?v1) (not (= ?v1 ?v0))) ))
(assert (forall ((?v0 Nat$) (?v1 Nat$)) (=> (fun_app$b (less$ ?v0) ?v1) (not (= ?v0 ?v1))) ))
(assert (forall ((?v0 Nat$) (?v1 Nat$)) (=> (fun_app$b (less$ ?v0) ?v1) (not (= ?v0 ?v1))) ))
(assert (forall ((?v0 Nat$) (?v1 Nat$)) (=> (fun_app$b (less$ ?v0) ?v1) (not (= ?v0 ?v1))) ))
(assert (forall ((?v0 Nat$) (?v1 Nat$)) (=> (fun_app$b (less$ ?v0) ?v1) (not (= ?v1 ?v0))) ))
(assert (forall ((?v0 Nat$) (?v1 Nat$) (?v2 Nat$)) (=> (fun_app$b (less$ ?v0) ?v1) (fun_app$b (less$ ?v0) (fun_app$d (plus$ ?v1) ?v2))) ))
(assert (forall ((?v0 Nat$) (?v1 Nat$) (?v2 Nat$)) (=> (fun_app$b (less$ ?v0) ?v1) (fun_app$b (less$ ?v0) (fun_app$d (plus$ ?v2) ?v1))) ))
(assert (forall ((?v0 Nat$) (?v1 Nat$)) (=> (fun_app$b (less$ ?v0) ?v1) (fun_app$b (less$ (of_nat$ ?v0)) (of_nat$ ?v1))) ))
(assert (forall ((?v0 Nat$) (?v1 Nat$) (?v2 Nat$)) (=> (fun_app$b (less$ ?v0) ?v1) (fun_app$b (less$ (fun_app$d (plus$ ?v0) ?v2)) (fun_app$d (plus$ ?v1) ?v2))) ))
(assert (forall ((?v0 Nat$) (?v1 Nat$)) (=> (fun_app$b (less$ ?v0) ?v1) (= (not (fun_app$b (less$ ?v1) ?v0)) true)) ))
(assert (forall ((?v0 Nat$) (?v1 Nat$) (?v2 Bool)) (=> (fun_app$b (less$ ?v0) ?v1) (= (=> (fun_app$b (less$ ?v1) ?v0) ?v2) true)) ))
(assert (forall ((?v0 Nat$) (?v1 Nat$)) (=> (fun_app$b (less$ ?v0) ?v1) (= (= ?v0 ?v1) false)) ))
(assert (forall ((?v0 Nat$) (?v1 Nat$)) (=> (fun_app$b (less$ ?v0) ?v1) (= (= ?v1 ?v0) false)) ))
(assert (forall ((?v0 Nat$) (?v1 Nat$) (?v2 Nat$) (?v3 Nat$)) (=> (and (fun_app$b (less$ ?v0) ?v1) (fun_app$b (less_eq$ ?v2) ?v3)) (fun_app$b (less$ (fun_app$d (plus$ ?v0) ?v2)) (fun_app$d (plus$ ?v1) ?v3))) ))
(assert (forall ((?v0 Nat$) (?v1 Nat$)) (=> (and (fun_app$b (less$ ?v0) ?v1) (fun_app$b (less$ ?v1) ?v0)) false) ))
(assert (forall ((?v0 Nat$) (?v1 Nat$)) (=> (and (fun_app$b (less$ ?v0) ?v1) (fun_app$b (less$ ?v1) ?v0)) false) ))
(assert (forall ((?v0 Nat$) (?v1 Nat$)) (=> (and (fun_app$b (less$ ?v0) ?v1) (fun_app$b (less$ ?v1) ?v0)) false) ))
(assert (forall ((?v0 Nat$) (?v1 Nat$) (?v2 Nat$)) (=> (and (fun_app$b (less$ ?v0) ?v1) (fun_app$b (less$ ?v1) ?v2)) (fun_app$b (less$ ?v0) ?v2)) ))
(assert (forall ((?v0 Nat$) (?v1 Nat$) (?v2 Nat$)) (=> (and (fun_app$b (less$ ?v0) ?v1) (fun_app$b (less$ ?v1) ?v2)) (fun_app$b (less$ ?v0) ?v2)) ))
(assert (forall ((?v0 Nat$) (?v1 Nat$) (?v2 Nat$)) (=> (and (fun_app$b (less$ ?v0) ?v1) (fun_app$b (less$ ?v2) ?v0)) (fun_app$b (less$ ?v2) ?v1)) ))
(assert (forall ((?v0 Nat$) (?v1 Nat$) (?v2 Nat$) (?v3 Nat$)) (=> (and (fun_app$b (less$ ?v0) ?v1) (fun_app$b (less$ ?v2) ?v3)) (fun_app$b (less$ (fun_app$d (plus$ ?v0) ?v2)) (fun_app$d (plus$ ?v1) ?v3))) ))
(assert (forall ((?v0 Nat$) (?v1 Nat_nat_fun$) (?v2 Nat$) (?v3 Nat$)) (=> (and (fun_app$b (less$ ?v0) (fun_app$d ?v1 ?v2)) (and (fun_app$b (less$ ?v2) ?v3) (forall ((?v4 Nat$) (?v5 Nat$)) (=> (fun_app$b (less$ ?v4) ?v5) (fun_app$b (less$ (fun_app$d ?v1 ?v4)) (fun_app$d ?v1 ?v5))) ))) (fun_app$b (less$ ?v0) (fun_app$d ?v1 ?v3))) ))
(assert (forall ((?v0 Nat$) (?v1 Nat$) (?v2 Nat_nat_fun$) (?v3 Nat$)) (=> (and (fun_app$b (less$ ?v0) ?v1) (and (fun_app$b (less$ (fun_app$d ?v2 ?v1)) ?v3) (forall ((?v4 Nat$) (?v5 Nat$)) (=> (fun_app$b (less$ ?v4) ?v5) (fun_app$b (less$ (fun_app$d ?v2 ?v4)) (fun_app$d ?v2 ?v5))) ))) (fun_app$b (less$ (fun_app$d ?v2 ?v0)) ?v3)) ))
(assert (forall ((?v0 Nat$) (?v1 Nat$) (?v2 Nat$)) (=> (and (fun_app$b (less$ ?v0) ?v1) (= ?v1 ?v2)) (fun_app$b (less$ ?v0) ?v2)) ))
(assert (forall ((?v0 Nat$) (?v1 Nat$) (?v2 Nat_nat_fun$) (?v3 Nat$)) (=> (and (fun_app$b (less$ ?v0) ?v1) (and (= (fun_app$d ?v2 ?v1) ?v3) (forall ((?v4 Nat$) (?v5 Nat$)) (=> (fun_app$b (less$ ?v4) ?v5) (fun_app$b (less$ (fun_app$d ?v2 ?v4)) (fun_app$d ?v2 ?v5))) ))) (fun_app$b (less$ (fun_app$d ?v2 ?v0)) ?v3)) ))
(assert (forall ((?v0 Nat$) (?v1 Nat$) (?v2 Nat$) (?v3 Nat$)) (=> (and (fun_app$b (less$ ?v0) ?v1) (= (fun_app$d (plus$ ?v2) ?v1) (fun_app$d (plus$ ?v0) ?v3))) (fun_app$b (less$ ?v2) ?v3)) ))
(assert (forall ((?v0 Nat$) (?v1 Nat$)) (=> (and (fun_app$b (less$ ?v0) ?v1) (=> (not false) (fun_app$b (less$ ?v1) ?v0))) false) ))
(assert (forall ((?v0 Nat$) (?v1 Nat$)) (=> (fun_app$b (less$ (of_nat$ ?v0)) (of_nat$ ?v1)) (fun_app$b (less$ ?v0) ?v1)) ))
(assert (forall ((?v0 Nat$) (?v1 Nat$) (?v2 Nat$)) (=> (fun_app$b (less$ (fun_app$d (plus$ ?v0) ?v1)) ?v2) (fun_app$b (less$ ?v0) ?v2)) ))
(assert (forall ((?v0 Nat$) (?v1 Nat$) (?v2 Nat$) (?v3 Nat$)) (=> (and (fun_app$b (less_eq$ ?v0) ?v1) (fun_app$b (less$ ?v2) ?v3)) (fun_app$b (less$ (fun_app$d (plus$ ?v0) ?v2)) (fun_app$d (plus$ ?v1) ?v3))) ))
(assert (forall ((?v0 Nat$) (?v1 Nat$) (?v2 Nat$) (?v3 Nat$)) (=> (and (fun_app$b (less$ ?v0) ?v1) (fun_app$b (less_eq$ ?v2) ?v3)) (fun_app$b (less$ (fun_app$d (plus$ ?v0) ?v2)) (fun_app$d (plus$ ?v1) ?v3))) ))
(assert (forall ((?v0 Nat$) (?v1 Nat$) (?v2 Nat$)) (=> (and (= ?v0 ?v1) (fun_app$b (less$ ?v1) ?v2)) (fun_app$b (less$ ?v0) ?v2)) ))
(assert (forall ((?v0 Nat$) (?v1 Nat_nat_fun$) (?v2 Nat$) (?v3 Nat$)) (=> (and (= ?v0 (fun_app$d ?v1 ?v2)) (and (fun_app$b (less$ ?v2) ?v3) (forall ((?v4 Nat$) (?v5 Nat$)) (=> (fun_app$b (less$ ?v4) ?v5) (fun_app$b (less$ (fun_app$d ?v1 ?v4)) (fun_app$d ?v1 ?v5))) ))) (fun_app$b (less$ ?v0) (fun_app$d ?v1 ?v3))) ))
(assert (forall ((?v0 Nat_bool_fun$) (?v1 Nat$)) (=> (forall ((?v2 Nat$)) (=> (forall ((?v3 Nat$)) (=> (fun_app$b (less$ ?v3) ?v2) (fun_app$b ?v0 ?v3)) ) (fun_app$b ?v0 ?v2)) ) (fun_app$b ?v0 ?v1)) ))
(assert (forall ((?v0 Nat_bool_fun$) (?v1 Nat$)) (=> (forall ((?v2 Nat$)) (=> (not (fun_app$b ?v0 ?v2)) (exists ((?v3 Nat$)) (and (fun_app$b (less$ ?v3) ?v2) (not (fun_app$b ?v0 ?v3))) )) ) (fun_app$b ?v0 ?v1)) ))
(assert (forall ((?v0 Nat_bool_fun$) (?v1 Nat$)) (=> (forall ((?v2 Nat$)) (=> (forall ((?v3 Nat$)) (=> (fun_app$b (less$ ?v3) ?v2) (fun_app$b ?v0 ?v3)) ) (fun_app$b ?v0 ?v2)) ) (fun_app$b ?v0 ?v1)) ))
(assert (forall ((?v0 Nat$) (?v1 Nat$) (?v2 Nat_nat_bool_fun_fun$)) (=> (and (=> (fun_app$b (less$ ?v0) ?v1) (fun_app$b (fun_app$e ?v2 ?v1) ?v0)) (and (=> (= ?v0 ?v1) (fun_app$b (fun_app$e ?v2 ?v1) ?v0)) (=> (fun_app$b (less$ ?v1) ?v0) (fun_app$b (fun_app$e ?v2 ?v1) ?v0)))) (fun_app$b (fun_app$e ?v2 ?v1) ?v0)) ))
(assert (forall ((?v0 Nat$) (?v1 Nat$)) (=> (and (=> (fun_app$b (less$ ?v0) ?v1) false) (and (=> (= ?v0 ?v1) false) (=> (fun_app$b (less$ ?v1) ?v0) false))) false) ))
(assert (forall ((?v0 Nat$) (?v1 Nat$)) (= (of_nat$ (fun_app$d (times$ ?v0) ?v1)) (fun_app$d (times$ (of_nat$ ?v0)) (of_nat$ ?v1))) ))
(assert (forall ((?v0 Nat$) (?v1 Nat$)) (= (not (fun_app$b (less$ ?v0) ?v1)) (or (fun_app$b (less$ ?v1) ?v0) (= ?v0 ?v1))) ))
(assert (forall ((?v0 Nat$) (?v1 Nat$)) (= (not (= ?v0 ?v1)) (or (fun_app$b (less$ ?v0) ?v1) (fun_app$b (less$ ?v1) ?v0))) ))
(assert (forall ((?v0 Nat$) (?v1 Nat$)) (= (not (= ?v0 ?v1)) (or (fun_app$b (less$ ?v0) ?v1) (fun_app$b (less$ ?v1) ?v0))) ))
(assert (forall ((?v0 Nat$) (?v1 Nat$) (?v2 Nat$)) (= (fun_app$d (times$ ?v0) (fun_app$d (plus$ ?v1) ?v2)) (fun_app$d (plus$ (fun_app$d (times$ ?v0) ?v1)) (fun_app$d (times$ ?v0) ?v2))) ))
(assert (forall ((?v0 Nat$) (?v1 Nat$) (?v2 Nat$)) (= (fun_app$d (times$ (fun_app$d (plus$ ?v0) ?v1)) ?v2) (fun_app$d (plus$ (fun_app$d (times$ ?v0) ?v2)) (fun_app$d (times$ ?v1) ?v2))) ))
(assert (forall ((?v0 Nat$) (?v1 Nat$) (?v2 Nat$)) (= (= (fun_app$d (plus$ ?v0) ?v1) (fun_app$d (plus$ ?v0) ?v2)) (= ?v1 ?v2)) ))
(assert (forall ((?v0 Nat$) (?v1 Nat$) (?v2 Nat$)) (= (= (fun_app$d (plus$ ?v0) ?v1) (fun_app$d (plus$ ?v2) ?v1)) (= ?v0 ?v2)) ))
(assert (forall ((?v0 Nat$) (?v1 Nat$)) (or (fun_app$b (less_eq$ ?v0) ?v1) (fun_app$b (less$ ?v1) ?v0)) ))
(assert (forall ((?v0 Nat$) (?v1 Nat$)) (=> (not (fun_app$b (less_eq$ ?v0) ?v1)) (fun_app$b (less$ ?v1) ?v0)) ))
(assert (forall ((?v0 Nat$) (?v1 Nat$)) (=> (not (fun_app$b (less$ ?v0) ?v1)) (fun_app$b (less_eq$ ?v1) ?v0)) ))
(assert (forall ((?v0 Nat$) (?v1 Nat$)) (! (=> (not (fun_app$b (less$ ?v0) ?v1)) (= (fun_app$b (less_eq$ ?v0) ?v1) (= ?v0 ?v1))) :pattern ((fun_app$b (less_eq$ ?v0) ?v1)))))
(assert (forall ((?v0 Nat$) (?v1 Nat$)) (=> (and (not (= ?v0 ?v1)) (fun_app$b (less_eq$ ?v0) ?v1)) (fun_app$b (less$ ?v0) ?v1)) ))
(assert (forall ((?v0 Nat$) (?v1 Nat$)) (=> (fun_app$b (less_eq$ ?v0) ?v1) (not (fun_app$b (less$ ?v1) ?v0))) ))
(check-sat)
(exit)

